-374.0 5.0 5.0 4.0 6.0 9.0 5.0 2.0 1.0 1.0 5.0 9.0 4.0 1.0 2.0 3.0 0.0 1.0 9.0 1.0 6.0 9.0 5.0 3.0 5.0 5.0 4.0 4.0 1.0 10.0 6.0 6.0 2.0 1.0 3.0 5.0 0.0 3.0 9.0 2.0 8.0 7.0 2.0 6.0 10.0 4.0 3.0 5.0 7.0 0.0 3.0 1.0 8.0 2.0 4.0 6.0 2.0 6.0 10.0 5.0 3.0 9.0 3.0 10.0 6.0 0.0 8.0 4.0 8.0 0.0 0.0 7.0 9.0 7.0 2.0 4.0 3.0 9.0 8.0 1.0 8.0 4.0 
5.0 -387.0 2.0 10.0 9.0 5.0 1.0 7.0 3.0 3.0 9.0 6.0 1.0 5.0 5.0 8.0 6.0 9.0 6.0 1.0 9.0 10.0 9.0 9.0 6.0 9.0 6.0 8.0 10.0 5.0 8.0 10.0 2.0 3.0 1.0 10.0 5.0 5.0 7.0 7.0 9.0 3.0 3.0 2.0 2.0 5.0 1.0 1.0 4.0 2.0 2.0 10.0 9.0 2.0 3.0 6.0 4.0 4.0 3.0 8.0 3.0 4.0 2.0 8.0 1.0 5.0 3.0 9.0 6.0 7.0 1.0 4.0 6.0 2.0 2.0 1.0 0.0 0.0 0.0 0.0 0.0 0.0 
5.0 2.0 -423.0 5.0 0.0 4.0 7.0 9.0 10.0 0.0 6.0 6.0 6.0 7.0 0.0 9.0 10.0 6.0 4.0 7.0 9.0 10.0 9.0 2.0 6.0 10.0 1.0 3.0 7.0 5.0 1.0 4.0 2.0 9.0 5.0 4.0 6.0 8.0 10.0 7.0 8.0 10.0 0.0 2.0 6.0 1.0 9.0 6.0 7.0 2.0 7.0 10.0 6.0 2.0 9.0 3.0 6.0 2.0 9.0 2.0 1.0 9.0 7.0 2.0 1.0 8.0 3.0 4.0 4.0 8.0 8.0 9.0 2.0 2.0 0.0 8.0 1.0 0.0 6.0 5.0 6.0 1.0 
4.0 10.0 5.0 -381.0 6.0 9.0 3.0 0.0 1.0 2.0 6.0 8.0 0.0 8.0 10.0 2.0 5.0 7.0 2.0 4.0 2.0 6.0 1.0 9.0 1.0 6.0 2.0 3.0 7.0 2.0 0.0 5.0 4.0 2.0 7.0 4.0 6.0 8.0 9.0 5.0 9.0 0.0 3.0 2.0 2.0 3.0 7.0 9.0 0.0 2.0 0.0 1.0 9.0 7.0 10.0 2.0 0.0 3.0 10.0 6.0 1.0 10.0 5.0 10.0 6.0 0.0 6.0 3.0 8.0 6.0 7.0 7.0 5.0 7.0 7.0 9.0 0.0 2.0 2.0 9.0 5.0 0.0 
6.0 9.0 0.0 6.0 -352.0 1.0 8.0 10.0 4.0 5.0 1.0 4.0 6.0 8.0 0.0 2.0 6.0 4.0 6.0 0.0 8.0 5.0 7.0 0.0 0.0 10.0 4.0 0.0 2.0 7.0 1.0 2.0 1.0 7.0 6.0 0.0 8.0 9.0 7.0 1.0 6.0 1.0 1.0 6.0 7.0 2.0 10.0 0.0 7.0 2.0 4.0 4.0 3.0 1.0 9.0 1.0 3.0 4.0 9.0 8.0 2.0 4.0 6.0 0.0 8.0 1.0 8.0 2.0 8.0 0.0 4.0 3.0 4.0 6.0 2.0 7.0 7.0 6.0 0.0 7.0 8.0 0.0 
9.0 5.0 4.0 9.0 1.0 -364.0 7.0 0.0 6.0 4.0 2.0 7.0 6.0 4.0 7.0 6.0 0.0 6.0 2.0 0.0 7.0 8.0 7.0 6.0 1.0 10.0 2.0 2.0 8.0 2.0 10.0 4.0 8.0 6.0 1.0 7.0 1.0 8.0 0.0 6.0 0.0 9.0 3.0 6.0 10.0 1.0 4.0 2.0 6.0 6.0 1.0 2.0 7.0 4.0 1.0 4.0 3.0 10.0 4.0 0.0 5.0 1.0 3.0 2.0 4.0 4.0 8.0 10.0 1.0 7.0 7.0 7.0 1.0 2.0 2.0 2.0 6.0 7.0 3.0 5.0 5.0 0.0 
5.0 1.0 7.0 3.0 8.0 7.0 -404.0 3.0 5.0 7.0 7.0 9.0 3.0 2.0 2.0 0.0 1.0 10.0 2.0 7.0 5.0 5.0 2.0 9.0 10.0 6.0 2.0 3.0 2.0 7.0 8.0 6.0 5.0 3.0 9.0 1.0 5.0 6.0 10.0 7.0 0.0 9.0 0.0 1.0 2.0 7.0 7.0 2.0 2.0 2.0 9.0 9.0 6.0 1.0 1.0 9.0 5.0 0.0 10.0 0.0 5.0 2.0 5.0 8.0 7.0 10.0 6.0 6.0 4.0 9.0 7.0 9.0 1.0 5.0 5.0 4.0 6.0 3.0 8.0 3.0 4.0 5.0 
2.0 7.0 9.0 0.0 10.0 0.0 3.0 -369.0 6.0 10.0 5.0 7.0 7.0 5.0 0.0 0.0 6.0 4.0 2.0 4.0 8.0 0.0 3.0 7.0 7.0 0.0 5.0 7.0 3.0 9.0 3.0 2.0 3.0 2.0 3.0 2.0 3.0 7.0 4.0 2.0 1.0 3.0 5.0 3.0 8.0 10.0 1.0 4.0 8.0 6.0 4.0 1.0 0.0 7.0 3.0 9.0 0.0 2.0 1.0 5.0 5.0 10.0 6.0 5.0 5.0 7.0 9.0 7.0 2.0 6.0 3.0 7.0 10.0 3.0 3.0 4.0 8.0 4.0 7.0 1.0 8.0 1.0 
1.0 3.0 10.0 1.0 4.0 6.0 5.0 6.0 -442.0 2.0 9.0 8.0 10.0 7.0 4.0 10.0 8.0 9.0 6.0 1.0 6.0 7.0 4.0 1.0 4.0 1.0 10.0 9.0 6.0 0.0 1.0 5.0 10.0 10.0 4.0 0.0 0.0 10.0 9.0 1.0 9.0 8.0 2.0 1.0 4.0 0.0 2.0 5.0 6.0 6.0 10.0 3.0 10.0 6.0 1.0 4.0 10.0 2.0 7.0 10.0 8.0 3.0 8.0 1.0 9.0 1.0 9.0 5.0 8.0 3.0 9.0 6.0 7.0 7.0 4.0 7.0 5.0 2.0 3.0 8.0 8.0 7.0 
1.0 3.0 0.0 2.0 5.0 4.0 7.0 10.0 2.0 -343.0 1.0 0.0 3.0 3.0 2.0 10.0 6.0 10.0 0.0 0.0 3.0 1.0 10.0 5.0 6.0 9.0 6.0 7.0 8.0 0.0 5.0 0.0 6.0 8.0 3.0 1.0 0.0 1.0 4.0 1.0 5.0 3.0 6.0 1.0 7.0 7.0 2.0 7.0 4.0 8.0 8.0 4.0 5.0 0.0 2.0 2.0 6.0 9.0 6.0 8.0 5.0 4.0 4.0 0.0 9.0 1.0 6.0 3.0 2.0 1.0 1.0 10.0 0.0 9.0 2.0 7.0 8.0 3.0 3.0 3.0 7.0 2.0 
5.0 9.0 6.0 6.0 1.0 2.0 7.0 5.0 9.0 1.0 -424.0 9.0 4.0 0.0 6.0 5.0 7.0 10.0 6.0 7.0 8.0 2.0 10.0 0.0 0.0 8.0 8.0 10.0 9.0 9.0 4.0 7.0 9.0 4.0 9.0 9.0 2.0 10.0 4.0 1.0 1.0 9.0 9.0 1.0 6.0 1.0 10.0 9.0 4.0 6.0 1.0 0.0 9.0 0.0 4.0 1.0 5.0 5.0 1.0 5.0 2.0 0.0 3.0 3.0 8.0 1.0 5.0 8.0 5.0 1.0 9.0 4.0 1.0 8.0 9.0 4.0 6.0 3.0 10.0 4.0 10.0 5.0 
9.0 6.0 6.0 8.0 4.0 7.0 9.0 7.0 8.0 0.0 9.0 -394.0 8.0 3.0 8.0 10.0 9.0 10.0 3.0 7.0 0.0 8.0 7.0 7.0 2.0 3.0 2.0 1.0 9.0 2.0 1.0 8.0 1.0 10.0 2.0 10.0 2.0 7.0 8.0 4.0 3.0 1.0 3.0 3.0 2.0 7.0 0.0 2.0 8.0 4.0 7.0 4.0 10.0 1.0 2.0 7.0 9.0 7.0 0.0 7.0 9.0 2.0 6.0 5.0 4.0 0.0 0.0 7.0 4.0 3.0 10.0 0.0 2.0 2.0 2.0 1.0 3.0 5.0 1.0 9.0 2.0 5.0 
4.0 1.0 6.0 0.0 6.0 6.0 3.0 7.0 10.0 3.0 4.0 8.0 -410.0 10.0 4.0 3.0 0.0 4.0 1.0 6.0 4.0 2.0 5.0 4.0 8.0 1.0 4.0 7.0 3.0 2.0 6.0 9.0 10.0 5.0 2.0 2.0 6.0 9.0 9.0 10.0 3.0 8.0 9.0 7.0 0.0 7.0 10.0 10.0 10.0 6.0 8.0 0.0 7.0 8.0 0.0 4.0 10.0 6.0 9.0 10.0 3.0 8.0 1.0 1.0 7.0 8.0 5.0 0.0 3.0 4.0 7.0 6.0 5.0 10.0 4.0 5.0 0.0 0.0 1.0 0.0 0.0 6.0 
1.0 5.0 7.0 8.0 8.0 4.0 2.0 5.0 7.0 3.0 0.0 3.0 10.0 -404.0 5.0 6.0 5.0 7.0 0.0 5.0 9.0 10.0 2.0 1.0 2.0 9.0 1.0 5.0 1.0 6.0 3.0 10.0 4.0 8.0 9.0 1.0 0.0 10.0 6.0 1.0 6.0 1.0 6.0 4.0 5.0 2.0 8.0 5.0 8.0 4.0 1.0 8.0 3.0 9.0 5.0 9.0 3.0 10.0 9.0 4.0 2.0 0.0 7.0 0.0 2.0 8.0 3.0 4.0 4.0 9.0 2.0 6.0 4.0 5.0 8.0 3.0 6.0 2.0 7.0 10.0 6.0 7.0 
2.0 5.0 0.0 10.0 0.0 7.0 2.0 0.0 4.0 2.0 6.0 8.0 4.0 5.0 -359.0 3.0 6.0 1.0 4.0 2.0 1.0 7.0 9.0 10.0 8.0 10.0 2.0 0.0 0.0 1.0 2.0 5.0 1.0 2.0 7.0 0.0 10.0 2.0 0.0 5.0 4.0 1.0 0.0 0.0 7.0 9.0 8.0 1.0 8.0 0.0 3.0 10.0 3.0 2.0 5.0 9.0 10.0 7.0 3.0 0.0 3.0 2.0 1.0 6.0 6.0 6.0 2.0 3.0 3.0 1.0 10.0 8.0 8.0 8.0 4.0 9.0 5.0 10.0 8.0 1.0 3.0 9.0 
3.0 8.0 9.0 2.0 2.0 6.0 0.0 0.0 10.0 10.0 5.0 10.0 3.0 6.0 3.0 -401.0 0.0 10.0 4.0 0.0 0.0 10.0 5.0 5.0 9.0 8.0 5.0 0.0 2.0 10.0 8.0 0.0 10.0 7.0 5.0 10.0 10.0 10.0 1.0 7.0 10.0 1.0 9.0 4.0 4.0 10.0 3.0 6.0 10.0 9.0 2.0 0.0 4.0 0.0 0.0 9.0 3.0 1.0 1.0 0.0 0.0 2.0 7.0 10.0 3.0 2.0 6.0 0.0 8.0 0.0 5.0 9.0 2.0 3.0 4.0 8.0 9.0 6.0 0.0 9.0 1.0 8.0 
0.0 6.0 10.0 5.0 6.0 0.0 1.0 6.0 8.0 6.0 7.0 9.0 0.0 5.0 6.0 0.0 -391.0 7.0 3.0 2.0 9.0 5.0 7.0 0.0 9.0 8.0 8.0 0.0 4.0 1.0 6.0 4.0 6.0 1.0 8.0 2.0 0.0 1.0 1.0 4.0 6.0 10.0 9.0 6.0 6.0 2.0 10.0 3.0 9.0 7.0 7.0 8.0 4.0 10.0 9.0 9.0 6.0 1.0 1.0 0.0 4.0 5.0 7.0 7.0 8.0 0.0 5.0 6.0 7.0 0.0 6.0 1.0 0.0 6.0 3.0 8.0 8.0 3.0 5.0 1.0 4.0 3.0 
1.0 9.0 6.0 7.0 4.0 6.0 10.0 4.0 9.0 10.0 10.0 10.0 4.0 7.0 1.0 10.0 7.0 -430.0 10.0 2.0 7.0 0.0 7.0 6.0 5.0 2.0 7.0 8.0 2.0 1.0 1.0 6.0 8.0 6.0 2.0 0.0 0.0 10.0 9.0 4.0 8.0 10.0 2.0 4.0 2.0 7.0 9.0 9.0 6.0 6.0 8.0 0.0 2.0 1.0 1.0 8.0 5.0 7.0 1.0 8.0 3.0 3.0 6.0 10.0 9.0 10.0 9.0 4.0 8.0 6.0 3.0 3.0 5.0 8.0 1.0 7.0 0.0 0.0 8.0 1.0 2.0 2.0 
9.0 6.0 4.0 2.0 6.0 2.0 2.0 2.0 6.0 0.0 6.0 3.0 1.0 0.0 4.0 4.0 3.0 10.0 -422.0 0.0 10.0 6.0 5.0 1.0 3.0 4.0 8.0 8.0 3.0 1.0 0.0 8.0 7.0 8.0 6.0 5.0 4.0 6.0 7.0 10.0 10.0 2.0 9.0 7.0 4.0 8.0 7.0 8.0 7.0 9.0 8.0 8.0 3.0 10.0 2.0 0.0 8.0 8.0 10.0 4.0 9.0 6.0 0.0 6.0 1.0 4.0 1.0 9.0 10.0 6.0 8.0 4.0 7.0 7.0 7.0 4.0 5.0 2.0 2.0 4.0 2.0 6.0 
1.0 1.0 7.0 4.0 0.0 0.0 7.0 4.0 1.0 0.0 7.0 7.0 6.0 5.0 2.0 0.0 2.0 2.0 0.0 -390.0 7.0 7.0 4.0 9.0 5.0 8.0 8.0 1.0 10.0 9.0 7.0 9.0 8.0 7.0 4.0 7.0 4.0 9.0 2.0 4.0 4.0 2.0 8.0 10.0 10.0 3.0 9.0 4.0 9.0 6.0 1.0 1.0 5.0 4.0 1.0 6.0 3.0 7.0 9.0 5.0 7.0 10.0 1.0 2.0 3.0 3.0 2.0 4.0 9.0 1.0 6.0 5.0 8.0 3.0 3.0 4.0 2.0 5.0 3.0 6.0 1.0 10.0 
6.0 9.0 9.0 2.0 8.0 7.0 5.0 8.0 6.0 3.0 8.0 0.0 4.0 9.0 1.0 0.0 9.0 7.0 10.0 7.0 -410.0 10.0 5.0 0.0 7.0 3.0 9.0 10.0 5.0 5.0 3.0 0.0 3.0 4.0 10.0 6.0 10.0 2.0 9.0 0.0 10.0 1.0 8.0 6.0 10.0 1.0 1.0 1.0 4.0 3.0 2.0 1.0 2.0 3.0 6.0 0.0 1.0 0.0 2.0 8.0 3.0 9.0 8.0 3.0 0.0 5.0 0.0 3.0 6.0 4.0 10.0 10.0 9.0 3.0 8.0 7.0 5.0 6.0 8.0 0.0 7.0 7.0 
9.0 10.0 10.0 6.0 5.0 8.0 5.0 0.0 7.0 1.0 2.0 8.0 2.0 10.0 7.0 10.0 5.0 0.0 6.0 7.0 10.0 -458.0 3.0 3.0 7.0 10.0 8.0 1.0 4.0 6.0 2.0 9.0 9.0 5.0 5.0 7.0 10.0 9.0 5.0 4.0 9.0 1.0 0.0 1.0 3.0 6.0 3.0 10.0 5.0 0.0 4.0 8.0 7.0 10.0 1.0 0.0 10.0 7.0 9.0 2.0 9.0 6.0 4.0 9.0 0.0 4.0 7.0 4.0 6.0 1.0 8.0 10.0 0.0 5.0 2.0 8.0 8.0 10.0 10.0 5.0 5.0 6.0 
5.0 9.0 9.0 1.0 7.0 7.0 2.0 3.0 4.0 10.0 10.0 7.0 5.0 2.0 9.0 5.0 7.0 7.0 5.0 4.0 5.0 3.0 -436.0 7.0 9.0 5.0 2.0 8.0 8.0 9.0 3.0 8.0 6.0 0.0 1.0 9.0 1.0 1.0 8.0 8.0 6.0 7.0 5.0 5.0 3.0 6.0 5.0 9.0 8.0 3.0 2.0 10.0 4.0 8.0 7.0 4.0 8.0 3.0 8.0 8.0 7.0 4.0 1.0 5.0 3.0 7.0 8.0 7.0 1.0 5.0 10.0 1.0 1.0 9.0 1.0 1.0 4.0 1.0 5.0 9.0 7.0 1.0 
3.0 9.0 2.0 9.0 0.0 6.0 9.0 7.0 1.0 5.0 0.0 7.0 4.0 1.0 10.0 5.0 0.0 6.0 1.0 9.0 0.0 3.0 7.0 -364.0 4.0 1.0 2.0 4.0 6.0 0.0 4.0 5.0 5.0 10.0 2.0 3.0 6.0 3.0 10.0 0.0 4.0 8.0 1.0 3.0 10.0 2.0 9.0 5.0 10.0 2.0 4.0 3.0 4.0 4.0 1.0 1.0 4.0 5.0 2.0 3.0 4.0 5.0 2.0 9.0 0.0 2.0 5.0 6.0 9.0 7.0 0.0 8.0 10.0 5.0 4.0 3.0 2.0 7.0 8.0 10.0 4.0 0.0 
5.0 6.0 6.0 1.0 0.0 1.0 10.0 7.0 4.0 6.0 0.0 2.0 8.0 2.0 8.0 9.0 9.0 5.0 3.0 5.0 7.0 7.0 9.0 4.0 -433.0 5.0 8.0 7.0 9.0 8.0 9.0 5.0 2.0 2.0 10.0 4.0 0.0 9.0 5.0 8.0 7.0 8.0 6.0 2.0 7.0 3.0 3.0 9.0 10.0 2.0 4.0 3.0 4.0 9.0 9.0 2.0 5.0 10.0 2.0 6.0 4.0 7.0 4.0 0.0 8.0 7.0 4.0 2.0 5.0 7.0 1.0 5.0 9.0 4.0 4.0 4.0 4.0 8.0 0.0 3.0 9.0 8.0 
5.0 9.0 10.0 6.0 10.0 10.0 6.0 0.0 1.0 9.0 8.0 3.0 1.0 9.0 10.0 8.0 8.0 2.0 4.0 8.0 3.0 10.0 5.0 1.0 5.0 -428.0 7.0 6.0 5.0 9.0 4.0 6.0 6.0 9.0 1.0 0.0 10.0 9.0 5.0 0.0 10.0 9.0 1.0 8.0 6.0 2.0 1.0 0.0 8.0 0.0 5.0 7.0 1.0 3.0 8.0 4.0 3.0 10.0 6.0 1.0 10.0 10.0 1.0 7.0 7.0 1.0 7.0 9.0 0.0 5.0 7.0 9.0 2.0 1.0 6.0 0.0 2.0 5.0 2.0 4.0 2.0 10.0 
4.0 6.0 1.0 2.0 4.0 2.0 2.0 5.0 10.0 6.0 8.0 2.0 4.0 1.0 2.0 5.0 8.0 7.0 8.0 8.0 9.0 8.0 2.0 2.0 8.0 7.0 -385.0 0.0 3.0 10.0 9.0 2.0 9.0 4.0 1.0 2.0 3.0 7.0 5.0 1.0 8.0 8.0 10.0 0.0 6.0 4.0 6.0 2.0 3.0 4.0 1.0 9.0 5.0 8.0 5.0 4.0 5.0 8.0 7.0 1.0 4.0 6.0 9.0 5.0 4.0 2.0 4.0 2.0 2.0 1.0 2.0 0.0 10.0 8.0 3.0 7.0 1.0 3.0 9.0 8.0 1.0 3.0 
4.0 8.0 3.0 3.0 0.0 2.0 3.0 7.0 9.0 7.0 10.0 1.0 7.0 5.0 0.0 0.0 0.0 8.0 8.0 1.0 10.0 1.0 8.0 4.0 7.0 6.0 0.0 -371.0 5.0 4.0 3.0 7.0 2.0 4.0 4.0 1.0 5.0 0.0 4.0 1.0 10.0 8.0 1.0 10.0 3.0 7.0 10.0 3.0 8.0 8.0 4.0 4.0 2.0 3.0 0.0 7.0 9.0 3.0 9.0 0.0 8.0 6.0 9.0 0.0 0.0 4.0 6.0 5.0 7.0 1.0 7.0 10.0 4.0 4.0 9.0 5.0 3.0 3.0 0.0 1.0 6.0 2.0 
1.0 10.0 7.0 7.0 2.0 8.0 2.0 3.0 6.0 8.0 9.0 9.0 3.0 1.0 0.0 2.0 4.0 2.0 3.0 10.0 5.0 4.0 8.0 6.0 9.0 5.0 3.0 5.0 -438.0 8.0 2.0 5.0 2.0 8.0 3.0 5.0 6.0 10.0 10.0 7.0 10.0 8.0 1.0 3.0 4.0 6.0 8.0 9.0 4.0 5.0 3.0 0.0 9.0 7.0 0.0 4.0 10.0 10.0 7.0 5.0 8.0 5.0 6.0 0.0 4.0 5.0 6.0 9.0 3.0 7.0 1.0 9.0 7.0 2.0 6.0 2.0 6.0 7.0 7.0 4.0 8.0 5.0 
10.0 5.0 5.0 2.0 7.0 2.0 7.0 9.0 0.0 0.0 9.0 2.0 2.0 6.0 1.0 10.0 1.0 1.0 1.0 9.0 5.0 6.0 9.0 0.0 8.0 9.0 10.0 4.0 8.0 -422.0 8.0 1.0 2.0 3.0 5.0 4.0 0.0 5.0 6.0 2.0 3.0 5.0 7.0 10.0 5.0 4.0 10.0 0.0 10.0 2.0 9.0 7.0 8.0 1.0 5.0 6.0 4.0 9.0 6.0 10.0 7.0 8.0 0.0 4.0 0.0 5.0 5.0 7.0 9.0 5.0 3.0 2.0 0.0 10.0 10.0 10.0 5.0 8.0 10.0 0.0 4.0 5.0 
6.0 8.0 1.0 0.0 1.0 10.0 8.0 3.0 1.0 5.0 4.0 1.0 6.0 3.0 2.0 8.0 6.0 1.0 0.0 7.0 3.0 2.0 3.0 4.0 9.0 4.0 9.0 3.0 2.0 8.0 -381.0 1.0 3.0 3.0 10.0 6.0 7.0 6.0 9.0 6.0 10.0 6.0 0.0 6.0 5.0 7.0 6.0 4.0 8.0 3.0 5.0 0.0 0.0 10.0 7.0 2.0 2.0 2.0 8.0 10.0 1.0 3.0 9.0 5.0 2.0 2.0 6.0 8.0 0.0 8.0 0.0 9.0 5.0 0.0 10.0 0.0 5.0 9.0 3.0 6.0 10.0 0.0 
6.0 10.0 4.0 5.0 2.0 4.0 6.0 2.0 5.0 0.0 7.0 8.0 9.0 10.0 5.0 0.0 4.0 6.0 8.0 9.0 0.0 9.0 8.0 5.0 5.0 6.0 2.0 7.0 5.0 1.0 1.0 -424.0 4.0 10.0 1.0 2.0 4.0 6.0 7.0 1.0 5.0 10.0 10.0 2.0 6.0 7.0 4.0 0.0 6.0 1.0 4.0 4.0 10.0 1.0 8.0 6.0 4.0 5.0 8.0 5.0 10.0 7.0 5.0 0.0 10.0 10.0 5.0 3.0 1.0 6.0 10.0 7.0 7.0 8.0 8.0 7.0 0.0 8.0 6.0 2.0 0.0 4.0 
2.0 2.0 2.0 4.0 1.0 8.0 5.0 3.0 10.0 6.0 9.0 1.0 10.0 4.0 1.0 10.0 6.0 8.0 7.0 8.0 3.0 9.0 6.0 5.0 2.0 6.0 9.0 2.0 2.0 2.0 3.0 4.0 -396.0 1.0 9.0 5.0 6.0 2.0 9.0 9.0 9.0 7.0 9.0 9.0 1.0 1.0 0.0 7.0 1.0 9.0 5.0 6.0 10.0 0.0 6.0 1.0 10.0 7.0 3.0 4.0 8.0 10.0 1.0 1.0 5.0 3.0 8.0 3.0 5.0 3.0 5.0 1.0 7.0 8.0 4.0 0.0 0.0 5.0 1.0 3.0 2.0 7.0 
1.0 3.0 9.0 2.0 7.0 6.0 3.0 2.0 10.0 8.0 4.0 10.0 5.0 8.0 2.0 7.0 1.0 6.0 8.0 7.0 4.0 5.0 0.0 10.0 2.0 9.0 4.0 4.0 8.0 3.0 3.0 10.0 1.0 -414.0 0.0 3.0 3.0 8.0 1.0 8.0 10.0 10.0 8.0 1.0 4.0 7.0 8.0 5.0 0.0 7.0 8.0 2.0 9.0 1.0 2.0 7.0 0.0 4.0 2.0 2.0 9.0 3.0 7.0 9.0 2.0 6.0 10.0 9.0 9.0 4.0 9.0 0.0 1.0 0.0 3.0 5.0 8.0 10.0 10.0 3.0 4.0 1.0 
3.0 1.0 5.0 7.0 6.0 1.0 9.0 3.0 4.0 3.0 9.0 2.0 2.0 9.0 7.0 5.0 8.0 2.0 6.0 4.0 10.0 5.0 1.0 2.0 10.0 1.0 1.0 4.0 3.0 5.0 10.0 1.0 9.0 0.0 -401.0 1.0 3.0 2.0 4.0 7.0 2.0 1.0 8.0 10.0 10.0 9.0 9.0 5.0 10.0 0.0 9.0 7.0 3.0 2.0 6.0 1.0 2.0 5.0 9.0 1.0 10.0 3.0 0.0 1.0 10.0 4.0 3.0 4.0 9.0 7.0 8.0 5.0 0.0 5.0 9.0 10.0 7.0 0.0 3.0 6.0 5.0 8.0 
5.0 10.0 4.0 4.0 0.0 7.0 1.0 2.0 0.0 1.0 9.0 10.0 2.0 1.0 0.0 10.0 2.0 0.0 5.0 7.0 6.0 7.0 9.0 3.0 4.0 0.0 2.0 1.0 5.0 4.0 6.0 2.0 5.0 3.0 1.0 -385.0 8.0 0.0 6.0 8.0 8.0 4.0 2.0 8.0 2.0 6.0 3.0 10.0 3.0 9.0 9.0 0.0 10.0 5.0 9.0 3.0 9.0 1.0 6.0 7.0 3.0 5.0 9.0 9.0 1.0 3.0 7.0 7.0 0.0 6.0 6.0 4.0 2.0 6.0 7.0 2.0 5.0 9.0 4.0 8.0 1.0 7.0 
0.0 5.0 6.0 6.0 8.0 1.0 5.0 3.0 0.0 0.0 2.0 2.0 6.0 0.0 10.0 10.0 0.0 0.0 4.0 4.0 10.0 10.0 1.0 6.0 0.0 10.0 3.0 5.0 6.0 0.0 7.0 4.0 6.0 3.0 3.0 8.0 -396.0 0.0 2.0 5.0 5.0 9.0 3.0 4.0 9.0 8.0 9.0 0.0 9.0 8.0 10.0 4.0 10.0 3.0 8.0 4.0 9.0 8.0 10.0 8.0 8.0 1.0 3.0 10.0 5.0 8.0 1.0 1.0 8.0 4.0 9.0 0.0 0.0 5.0 8.0 10.0 3.0 3.0 0.0 1.0 3.0 6.0 
3.0 5.0 8.0 8.0 9.0 8.0 6.0 7.0 10.0 1.0 10.0 7.0 9.0 10.0 2.0 10.0 1.0 10.0 6.0 9.0 2.0 9.0 1.0 3.0 9.0 9.0 7.0 0.0 10.0 5.0 6.0 6.0 2.0 8.0 2.0 0.0 0.0 -430.0 2.0 8.0 10.0 3.0 9.0 1.0 6.0 9.0 6.0 2.0 3.0 8.0 3.0 4.0 2.0 1.0 2.0 10.0 3.0 1.0 4.0 9.0 2.0 8.0 6.0 2.0 8.0 8.0 0.0 2.0 8.0 2.0 6.0 0.0 5.0 8.0 3.0 0.0 5.0 10.0 5.0 10.0 0.0 8.0 
9.0 7.0 10.0 9.0 7.0 0.0 10.0 4.0 9.0 4.0 4.0 8.0 9.0 6.0 0.0 1.0 1.0 9.0 7.0 2.0 9.0 5.0 8.0 10.0 5.0 5.0 5.0 4.0 10.0 6.0 9.0 7.0 9.0 1.0 4.0 6.0 2.0 2.0 -448.0 1.0 4.0 10.0 2.0 7.0 7.0 5.0 1.0 4.0 4.0 3.0 10.0 9.0 9.0 8.0 5.0 7.0 0.0 7.0 3.0 5.0 4.0 8.0 9.0 0.0 10.0 10.0 9.0 3.0 5.0 2.0 5.0 7.0 2.0 0.0 8.0 1.0 7.0 8.0 5.0 2.0 5.0 4.0 
2.0 7.0 7.0 5.0 1.0 6.0 7.0 2.0 1.0 1.0 1.0 4.0 10.0 1.0 5.0 7.0 4.0 4.0 10.0 4.0 0.0 4.0 8.0 0.0 8.0 0.0 1.0 1.0 7.0 2.0 6.0 1.0 9.0 8.0 7.0 8.0 5.0 8.0 1.0 -401.0 6.0 7.0 3.0 4.0 10.0 9.0 9.0 10.0 7.0 9.0 7.0 10.0 5.0 3.0 8.0 3.0 6.0 10.0 2.0 0.0 6.0 1.0 7.0 0.0 6.0 1.0 6.0 8.0 6.0 7.0 0.0 6.0 4.0 5.0 0.0 10.0 0.0 7.0 3.0 4.0 8.0 5.0 
8.0 9.0 8.0 9.0 6.0 0.0 0.0 1.0 9.0 5.0 1.0 3.0 3.0 6.0 4.0 10.0 6.0 8.0 10.0 4.0 10.0 9.0 6.0 4.0 7.0 10.0 8.0 10.0 10.0 3.0 10.0 5.0 9.0 10.0 2.0 8.0 5.0 10.0 4.0 6.0 -464.0 2.0 10.0 4.0 5.0 9.0 0.0 10.0 0.0 8.0 7.0 1.0 8.0 8.0 6.0 0.0 7.0 5.0 3.0 8.0 9.0 7.0 2.0 7.0 5.0 3.0 3.0 8.0 10.0 2.0 3.0 9.0 4.0 2.0 5.0 6.0 0.0 1.0 2.0 0.0 10.0 9.0 
7.0 3.0 10.0 0.0 1.0 9.0 9.0 3.0 8.0 3.0 9.0 1.0 8.0 1.0 1.0 1.0 10.0 10.0 2.0 2.0 1.0 1.0 7.0 8.0 8.0 9.0 8.0 8.0 8.0 5.0 6.0 10.0 7.0 10.0 1.0 4.0 9.0 3.0 10.0 7.0 2.0 -421.0 3.0 9.0 1.0 0.0 2.0 3.0 1.0 9.0 7.0 3.0 3.0 1.0 8.0 10.0 3.0 3.0 9.0 3.0 7.0 5.0 0.0 8.0 9.0 1.0 3.0 3.0 2.0 1.0 5.0 4.0 9.0 6.0 7.0 7.0 0.0 10.0 7.0 6.0 4.0 9.0 
2.0 3.0 0.0 3.0 1.0 3.0 0.0 5.0 2.0 6.0 9.0 3.0 9.0 6.0 0.0 9.0 9.0 2.0 9.0 8.0 8.0 0.0 5.0 1.0 6.0 1.0 10.0 1.0 1.0 7.0 0.0 10.0 9.0 8.0 8.0 2.0 3.0 9.0 2.0 3.0 10.0 3.0 -378.0 10.0 9.0 5.0 10.0 8.0 0.0 3.0 0.0 8.0 10.0 1.0 1.0 4.0 7.0 4.0 4.0 3.0 8.0 2.0 6.0 9.0 2.0 4.0 8.0 2.0 7.0 1.0 8.0 7.0 0.0 4.0 10.0 0.0 0.0 5.0 4.0 3.0 0.0 5.0 
6.0 2.0 2.0 2.0 6.0 6.0 1.0 3.0 1.0 1.0 1.0 3.0 7.0 4.0 0.0 4.0 6.0 4.0 7.0 10.0 6.0 1.0 5.0 3.0 2.0 8.0 0.0 10.0 3.0 10.0 6.0 2.0 9.0 1.0 10.0 8.0 4.0 1.0 7.0 4.0 4.0 9.0 10.0 -393.0 7.0 7.0 4.0 3.0 6.0 0.0 1.0 7.0 4.0 1.0 5.0 4.0 10.0 5.0 2.0 3.0 10.0 7.0 5.0 2.0 10.0 9.0 4.0 0.0 8.0 3.0 0.0 8.0 10.0 3.0 7.0 2.0 0.0 10.0 8.0 5.0 6.0 8.0 
10.0 2.0 6.0 2.0 7.0 10.0 2.0 8.0 4.0 7.0 6.0 2.0 0.0 5.0 7.0 4.0 6.0 2.0 4.0 10.0 10.0 3.0 3.0 10.0 7.0 6.0 6.0 3.0 4.0 5.0 5.0 6.0 1.0 4.0 10.0 2.0 9.0 6.0 7.0 10.0 5.0 1.0 9.0 7.0 -435.0 3.0 5.0 4.0 1.0 5.0 3.0 5.0 5.0 10.0 2.0 10.0 4.0 7.0 0.0 7.0 4.0 6.0 1.0 9.0 1.0 10.0 6.0 5.0 5.0 9.0 3.0 8.0 7.0 5.0 4.0 4.0 7.0 1.0 5.0 7.0 10.0 4.0 
4.0 5.0 1.0 3.0 2.0 1.0 7.0 10.0 0.0 7.0 1.0 7.0 7.0 2.0 9.0 10.0 2.0 7.0 8.0 3.0 1.0 6.0 6.0 2.0 3.0 2.0 4.0 7.0 6.0 4.0 7.0 7.0 1.0 7.0 9.0 6.0 8.0 9.0 5.0 9.0 9.0 0.0 5.0 7.0 3.0 -398.0 2.0 10.0 4.0 0.0 2.0 1.0 9.0 6.0 2.0 8.0 8.0 10.0 10.0 2.0 7.0 5.0 1.0 0.0 7.0 1.0 7.0 6.0 5.0 0.0 7.0 1.0 8.0 5.0 10.0 5.0 7.0 0.0 5.0 1.0 4.0 3.0 
3.0 1.0 9.0 7.0 10.0 4.0 7.0 1.0 2.0 2.0 10.0 0.0 10.0 8.0 8.0 3.0 10.0 9.0 7.0 9.0 1.0 3.0 5.0 9.0 3.0 1.0 6.0 10.0 8.0 10.0 6.0 4.0 0.0 8.0 9.0 3.0 9.0 6.0 1.0 9.0 0.0 2.0 10.0 4.0 5.0 2.0 -420.0 5.0 9.0 5.0 1.0 0.0 8.0 6.0 5.0 2.0 3.0 5.0 4.0 10.0 7.0 4.0 5.0 0.0 0.0 4.0 5.0 0.0 3.0 2.0 9.0 2.0 8.0 4.0 6.0 10.0 7.0 7.0 0.0 4.0 10.0 6.0 
5.0 1.0 6.0 9.0 0.0 2.0 2.0 4.0 5.0 7.0 9.0 2.0 10.0 5.0 1.0 6.0 3.0 9.0 8.0 4.0 1.0 10.0 9.0 5.0 9.0 0.0 2.0 3.0 9.0 0.0 4.0 0.0 7.0 5.0 5.0 10.0 0.0 2.0 4.0 10.0 10.0 3.0 8.0 3.0 4.0 10.0 5.0 -433.0 10.0 7.0 9.0 8.0 10.0 1.0 2.0 1.0 5.0 4.0 8.0 9.0 0.0 4.0 2.0 1.0 7.0 7.0 7.0 3.0 7.0 8.0 8.0 4.0 8.0 0.0 10.0 3.0 5.0 10.0 7.0 9.0 5.0 8.0 
7.0 4.0 7.0 0.0 7.0 6.0 2.0 8.0 6.0 4.0 4.0 8.0 10.0 8.0 8.0 10.0 9.0 6.0 7.0 9.0 4.0 5.0 8.0 10.0 10.0 8.0 3.0 8.0 4.0 10.0 8.0 6.0 1.0 0.0 10.0 3.0 9.0 3.0 4.0 7.0 0.0 1.0 0.0 6.0 1.0 4.0 9.0 10.0 -423.0 0.0 10.0 6.0 0.0 0.0 0.0 1.0 3.0 2.0 6.0 10.0 7.0 3.0 6.0 10.0 0.0 0.0 0.0 10.0 3.0 0.0 0.0 3.0 8.0 9.0 2.0 0.0 7.0 9.0 10.0 5.0 6.0 5.0 
0.0 2.0 2.0 2.0 2.0 6.0 2.0 6.0 6.0 8.0 6.0 4.0 6.0 4.0 0.0 9.0 7.0 6.0 9.0 6.0 3.0 0.0 3.0 2.0 2.0 0.0 4.0 8.0 5.0 2.0 3.0 1.0 9.0 7.0 0.0 9.0 8.0 8.0 3.0 9.0 8.0 9.0 3.0 0.0 5.0 0.0 5.0 7.0 0.0 -377.0 1.0 6.0 2.0 7.0 10.0 10.0 0.0 1.0 8.0 10.0 2.0 8.0 3.0 9.0 1.0 9.0 10.0 9.0 5.0 2.0 5.0 1.0 10.0 1.0 3.0 0.0 5.0 1.0 3.0 7.0 10.0 2.0 
3.0 2.0 7.0 0.0 4.0 1.0 9.0 4.0 10.0 8.0 1.0 7.0 8.0 1.0 3.0 2.0 7.0 8.0 8.0 1.0 2.0 4.0 2.0 4.0 4.0 5.0 1.0 4.0 3.0 9.0 5.0 4.0 5.0 8.0 9.0 9.0 10.0 3.0 10.0 7.0 7.0 7.0 0.0 1.0 3.0 2.0 1.0 9.0 10.0 1.0 -397.0 6.0 3.0 6.0 4.0 2.0 5.0 4.0 5.0 3.0 0.0 1.0 2.0 3.0 3.0 4.0 2.0 0.0 10.0 9.0 5.0 4.0 5.0 7.0 10.0 2.0 5.0 10.0 9.0 8.0 8.0 9.0 
1.0 10.0 10.0 1.0 4.0 2.0 9.0 1.0 3.0 4.0 0.0 4.0 0.0 8.0 10.0 0.0 8.0 0.0 8.0 1.0 1.0 8.0 10.0 3.0 3.0 7.0 9.0 4.0 0.0 7.0 0.0 4.0 6.0 2.0 7.0 0.0 4.0 4.0 9.0 10.0 1.0 3.0 8.0 7.0 5.0 1.0 0.0 8.0 6.0 6.0 6.0 -394.0 7.0 7.0 5.0 5.0 4.0 5.0 6.0 8.0 5.0 1.0 10.0 8.0 4.0 6.0 3.0 0.0 6.0 5.0 8.0 3.0 6.0 4.0 9.0 10.0 2.0 2.0 6.0 5.0 10.0 1.0 
8.0 9.0 6.0 9.0 3.0 7.0 6.0 0.0 10.0 5.0 9.0 10.0 7.0 3.0 3.0 4.0 4.0 2.0 3.0 5.0 2.0 7.0 4.0 4.0 4.0 1.0 5.0 2.0 9.0 8.0 0.0 10.0 10.0 9.0 3.0 10.0 10.0 2.0 9.0 5.0 8.0 3.0 10.0 4.0 5.0 9.0 8.0 10.0 0.0 2.0 3.0 7.0 -434.0 7.0 4.0 8.0 5.0 8.0 5.0 2.0 6.0 4.0 10.0 5.0 10.0 0.0 7.0 2.0 6.0 7.0 5.0 1.0 0.0 3.0 1.0 0.0 6.0 8.0 3.0 4.0 6.0 5.0 
2.0 2.0 2.0 7.0 1.0 4.0 1.0 7.0 6.0 0.0 0.0 1.0 8.0 9.0 2.0 0.0 10.0 1.0 10.0 4.0 3.0 10.0 8.0 4.0 9.0 3.0 8.0 3.0 7.0 1.0 10.0 1.0 0.0 1.0 2.0 5.0 3.0 1.0 8.0 3.0 8.0 1.0 1.0 1.0 10.0 6.0 6.0 1.0 0.0 7.0 6.0 7.0 7.0 -343.0 1.0 0.0 8.0 0.0 0.0 0.0 7.0 9.0 8.0 7.0 2.0 5.0 2.0 4.0 5.0 1.0 6.0 0.0 1.0 9.0 3.0 8.0 4.0 6.0 2.0 2.0 7.0 8.0 
4.0 3.0 9.0 10.0 9.0 1.0 1.0 3.0 1.0 2.0 4.0 2.0 0.0 5.0 5.0 0.0 9.0 1.0 2.0 1.0 6.0 1.0 7.0 1.0 9.0 8.0 5.0 0.0 0.0 5.0 7.0 8.0 6.0 2.0 6.0 9.0 8.0 2.0 5.0 8.0 6.0 8.0 1.0 5.0 2.0 2.0 5.0 2.0 0.0 10.0 4.0 5.0 4.0 1.0 -375.0 1.0 4.0 6.0 4.0 6.0 4.0 4.0 7.0 5.0 7.0 6.0 5.0 9.0 4.0 7.0 9.0 9.0 5.0 5.0 6.0 3.0 2.0 7.0 0.0 5.0 9.0 6.0 
6.0 6.0 3.0 2.0 1.0 4.0 9.0 9.0 4.0 2.0 1.0 7.0 4.0 9.0 9.0 9.0 9.0 8.0 0.0 6.0 0.0 0.0 4.0 1.0 2.0 4.0 4.0 7.0 4.0 6.0 2.0 6.0 1.0 7.0 1.0 3.0 4.0 10.0 7.0 3.0 0.0 10.0 4.0 4.0 10.0 8.0 2.0 1.0 1.0 10.0 2.0 5.0 8.0 0.0 1.0 -396.0 6.0 8.0 3.0 5.0 10.0 10.0 10.0 2.0 5.0 9.0 9.0 9.0 8.0 4.0 1.0 8.0 1.0 3.0 4.0 6.0 5.0 2.0 4.0 1.0 7.0 6.0 
2.0 4.0 6.0 0.0 3.0 3.0 5.0 0.0 10.0 6.0 5.0 9.0 10.0 3.0 10.0 3.0 6.0 5.0 8.0 3.0 1.0 10.0 8.0 4.0 5.0 3.0 5.0 9.0 10.0 4.0 2.0 4.0 10.0 0.0 2.0 9.0 9.0 3.0 0.0 6.0 7.0 3.0 7.0 10.0 4.0 8.0 3.0 5.0 3.0 0.0 5.0 4.0 5.0 8.0 4.0 6.0 -427.0 9.0 7.0 9.0 8.0 4.0 9.0 10.0 6.0 9.0 2.0 7.0 0.0 6.0 8.0 3.0 2.0 9.0 7.0 5.0 0.0 10.0 0.0 7.0 0.0 3.0 
6.0 4.0 2.0 3.0 4.0 10.0 0.0 2.0 2.0 9.0 5.0 7.0 6.0 10.0 7.0 1.0 1.0 7.0 8.0 7.0 0.0 7.0 3.0 5.0 10.0 10.0 8.0 3.0 10.0 9.0 2.0 5.0 7.0 4.0 5.0 1.0 8.0 1.0 7.0 10.0 5.0 3.0 4.0 5.0 7.0 10.0 5.0 4.0 2.0 1.0 4.0 5.0 8.0 0.0 6.0 8.0 9.0 -411.0 5.0 7.0 2.0 2.0 9.0 0.0 10.0 6.0 7.0 5.0 3.0 4.0 9.0 2.0 3.0 1.0 1.0 0.0 5.0 8.0 4.0 3.0 3.0 10.0 
10.0 3.0 9.0 10.0 9.0 4.0 10.0 1.0 7.0 6.0 1.0 0.0 9.0 9.0 3.0 1.0 1.0 1.0 10.0 9.0 2.0 9.0 8.0 2.0 2.0 6.0 7.0 9.0 7.0 6.0 8.0 8.0 3.0 2.0 9.0 6.0 10.0 4.0 3.0 2.0 3.0 9.0 4.0 2.0 0.0 10.0 4.0 8.0 6.0 8.0 5.0 6.0 5.0 0.0 4.0 3.0 7.0 5.0 -444.0 3.0 9.0 2.0 10.0 0.0 5.0 10.0 0.0 10.0 0.0 7.0 2.0 9.0 0.0 10.0 1.0 7.0 6.0 7.0 8.0 7.0 10.0 6.0 
5.0 8.0 2.0 6.0 8.0 0.0 0.0 5.0 10.0 8.0 5.0 7.0 10.0 4.0 0.0 0.0 0.0 8.0 4.0 5.0 8.0 2.0 8.0 3.0 6.0 1.0 1.0 0.0 5.0 10.0 10.0 5.0 4.0 2.0 1.0 7.0 8.0 9.0 5.0 0.0 8.0 3.0 3.0 3.0 7.0 2.0 10.0 9.0 10.0 10.0 3.0 8.0 2.0 0.0 6.0 5.0 9.0 7.0 3.0 -408.0 6.0 4.0 5.0 2.0 4.0 3.0 8.0 1.0 2.0 9.0 9.0 0.0 8.0 1.0 5.0 10.0 8.0 5.0 8.0 1.0 1.0 10.0 
3.0 3.0 1.0 1.0 2.0 5.0 5.0 5.0 8.0 5.0 2.0 9.0 3.0 2.0 3.0 0.0 4.0 3.0 9.0 7.0 3.0 9.0 7.0 4.0 4.0 10.0 4.0 8.0 8.0 7.0 1.0 10.0 8.0 9.0 10.0 3.0 8.0 2.0 4.0 6.0 9.0 7.0 8.0 10.0 4.0 7.0 7.0 0.0 7.0 2.0 0.0 5.0 6.0 7.0 4.0 10.0 8.0 2.0 9.0 6.0 -402.0 1.0 2.0 0.0 8.0 10.0 10.0 0.0 1.0 0.0 3.0 7.0 10.0 4.0 0.0 1.0 8.0 2.0 2.0 5.0 5.0 0.0 
9.0 4.0 9.0 10.0 4.0 1.0 2.0 10.0 3.0 4.0 0.0 2.0 8.0 0.0 2.0 2.0 5.0 3.0 6.0 10.0 9.0 6.0 4.0 5.0 7.0 10.0 6.0 6.0 5.0 8.0 3.0 7.0 10.0 3.0 3.0 5.0 1.0 8.0 8.0 1.0 7.0 5.0 2.0 7.0 6.0 5.0 4.0 4.0 3.0 8.0 1.0 1.0 4.0 9.0 4.0 10.0 4.0 2.0 2.0 4.0 1.0 -420.0 9.0 4.0 6.0 7.0 9.0 2.0 4.0 1.0 5.0 10.0 7.0 4.0 5.0 4.0 10.0 8.0 8.0 4.0 8.0 3.0 
3.0 2.0 7.0 5.0 6.0 3.0 5.0 6.0 8.0 4.0 3.0 6.0 1.0 7.0 1.0 7.0 7.0 6.0 0.0 1.0 8.0 4.0 1.0 2.0 4.0 1.0 9.0 9.0 6.0 0.0 9.0 5.0 1.0 7.0 0.0 9.0 3.0 6.0 9.0 7.0 2.0 0.0 6.0 5.0 1.0 1.0 5.0 2.0 6.0 3.0 2.0 10.0 10.0 8.0 7.0 10.0 9.0 9.0 10.0 5.0 2.0 9.0 -420.0 10.0 2.0 5.0 8.0 2.0 4.0 10.0 9.0 10.0 10.0 8.0 0.0 1.0 10.0 6.0 7.0 0.0 1.0 7.0 
10.0 8.0 2.0 10.0 0.0 2.0 8.0 5.0 1.0 0.0 3.0 5.0 1.0 0.0 6.0 10.0 7.0 10.0 6.0 2.0 3.0 9.0 5.0 9.0 0.0 7.0 5.0 0.0 0.0 4.0 5.0 0.0 1.0 9.0 1.0 9.0 10.0 2.0 0.0 0.0 7.0 8.0 9.0 2.0 9.0 0.0 0.0 1.0 10.0 9.0 3.0 8.0 5.0 7.0 5.0 2.0 10.0 0.0 0.0 2.0 0.0 4.0 10.0 -375.0 9.0 9.0 4.0 9.0 8.0 1.0 8.0 3.0 9.0 0.0 1.0 2.0 3.0 3.0 8.0 1.0 1.0 10.0 
6.0 1.0 1.0 6.0 8.0 4.0 7.0 5.0 9.0 9.0 8.0 4.0 7.0 2.0 6.0 3.0 8.0 9.0 1.0 3.0 0.0 0.0 3.0 0.0 8.0 7.0 4.0 0.0 4.0 0.0 2.0 10.0 5.0 2.0 10.0 1.0 5.0 8.0 10.0 6.0 5.0 9.0 2.0 10.0 1.0 7.0 0.0 7.0 0.0 1.0 3.0 4.0 10.0 2.0 7.0 5.0 6.0 10.0 5.0 4.0 8.0 6.0 2.0 9.0 -426.0 4.0 10.0 0.0 9.0 9.0 10.0 8.0 1.0 1.0 8.0 6.0 6.0 8.0 9.0 5.0 8.0 9.0 
0.0 5.0 8.0 0.0 1.0 4.0 10.0 7.0 1.0 1.0 1.0 0.0 8.0 8.0 6.0 2.0 0.0 10.0 4.0 3.0 5.0 4.0 7.0 2.0 7.0 1.0 2.0 4.0 5.0 5.0 2.0 10.0 3.0 6.0 4.0 3.0 8.0 8.0 10.0 1.0 3.0 1.0 4.0 9.0 10.0 1.0 4.0 7.0 0.0 9.0 4.0 6.0 0.0 5.0 6.0 9.0 9.0 6.0 10.0 3.0 10.0 7.0 5.0 9.0 4.0 -406.0 5.0 0.0 6.0 7.0 6.0 9.0 10.0 3.0 8.0 8.0 0.0 6.0 3.0 5.0 7.0 6.0 
8.0 3.0 3.0 6.0 8.0 8.0 6.0 9.0 9.0 6.0 5.0 0.0 5.0 3.0 2.0 6.0 5.0 9.0 1.0 2.0 0.0 7.0 8.0 5.0 4.0 7.0 4.0 6.0 6.0 5.0 6.0 5.0 8.0 10.0 3.0 7.0 1.0 0.0 9.0 6.0 3.0 3.0 8.0 4.0 6.0 7.0 5.0 7.0 0.0 10.0 2.0 3.0 7.0 2.0 5.0 9.0 2.0 7.0 0.0 8.0 10.0 9.0 8.0 4.0 10.0 5.0 -420.0 4.0 4.0 5.0 4.0 2.0 8.0 2.0 5.0 2.0 0.0 3.0 7.0 10.0 9.0 0.0 
4.0 9.0 4.0 3.0 2.0 10.0 6.0 7.0 5.0 3.0 8.0 7.0 0.0 4.0 3.0 0.0 6.0 4.0 9.0 4.0 3.0 4.0 7.0 6.0 2.0 9.0 2.0 5.0 9.0 7.0 8.0 3.0 3.0 9.0 4.0 7.0 1.0 2.0 3.0 8.0 8.0 3.0 2.0 0.0 5.0 6.0 0.0 3.0 10.0 9.0 0.0 0.0 2.0 4.0 9.0 9.0 7.0 5.0 10.0 1.0 0.0 2.0 2.0 9.0 0.0 0.0 4.0 -397.0 7.0 3.0 7.0 4.0 7.0 5.0 4.0 10.0 5.0 8.0 5.0 8.0 7.0 7.0 
8.0 6.0 4.0 8.0 8.0 1.0 4.0 2.0 8.0 2.0 5.0 4.0 3.0 4.0 3.0 8.0 7.0 8.0 10.0 9.0 6.0 6.0 1.0 9.0 5.0 0.0 2.0 7.0 3.0 9.0 0.0 1.0 5.0 9.0 9.0 0.0 8.0 8.0 5.0 6.0 10.0 2.0 7.0 8.0 5.0 5.0 3.0 7.0 3.0 5.0 10.0 6.0 6.0 5.0 4.0 8.0 0.0 3.0 0.0 2.0 1.0 4.0 4.0 8.0 9.0 6.0 4.0 7.0 -429.0 10.0 9.0 10.0 2.0 6.0 2.0 10.0 5.0 6.0 7.0 0.0 2.0 7.0 
0.0 7.0 8.0 6.0 0.0 7.0 9.0 6.0 3.0 1.0 1.0 3.0 4.0 9.0 1.0 0.0 0.0 6.0 6.0 1.0 4.0 1.0 5.0 7.0 7.0 5.0 1.0 1.0 7.0 5.0 8.0 6.0 3.0 4.0 7.0 6.0 4.0 2.0 2.0 7.0 2.0 1.0 1.0 3.0 9.0 0.0 2.0 8.0 0.0 2.0 9.0 5.0 7.0 1.0 7.0 4.0 6.0 4.0 7.0 9.0 0.0 1.0 10.0 1.0 9.0 7.0 5.0 3.0 10.0 -363.0 1.0 4.0 1.0 10.0 8.0 10.0 9.0 8.0 3.0 3.0 1.0 2.0 
0.0 1.0 8.0 7.0 4.0 7.0 7.0 3.0 9.0 1.0 9.0 10.0 7.0 2.0 10.0 5.0 6.0 3.0 8.0 6.0 10.0 8.0 10.0 0.0 1.0 7.0 2.0 7.0 1.0 3.0 0.0 10.0 5.0 9.0 8.0 6.0 9.0 6.0 5.0 0.0 3.0 5.0 8.0 0.0 3.0 7.0 9.0 8.0 0.0 5.0 5.0 8.0 5.0 6.0 9.0 1.0 8.0 9.0 2.0 9.0 3.0 5.0 9.0 8.0 10.0 6.0 4.0 7.0 9.0 1.0 -463.0 10.0 8.0 4.0 3.0 8.0 7.0 2.0 8.0 9.0 7.0 5.0 
7.0 4.0 9.0 7.0 3.0 7.0 9.0 7.0 6.0 10.0 4.0 0.0 6.0 6.0 8.0 9.0 1.0 3.0 4.0 5.0 10.0 10.0 1.0 8.0 5.0 9.0 0.0 10.0 9.0 2.0 9.0 7.0 1.0 0.0 5.0 4.0 0.0 0.0 7.0 6.0 9.0 4.0 7.0 8.0 8.0 1.0 2.0 4.0 3.0 1.0 4.0 3.0 1.0 0.0 9.0 8.0 3.0 2.0 9.0 0.0 7.0 10.0 10.0 3.0 8.0 9.0 2.0 4.0 10.0 4.0 10.0 -424.0 4.0 7.0 6.0 8.0 1.0 2.0 2.0 3.0 6.0 4.0 
9.0 6.0 2.0 5.0 4.0 1.0 1.0 10.0 7.0 0.0 1.0 2.0 5.0 4.0 8.0 2.0 0.0 5.0 7.0 8.0 9.0 0.0 1.0 10.0 9.0 2.0 10.0 4.0 7.0 0.0 5.0 7.0 7.0 1.0 0.0 2.0 0.0 5.0 2.0 4.0 4.0 9.0 0.0 10.0 7.0 8.0 8.0 8.0 8.0 10.0 5.0 6.0 0.0 1.0 5.0 1.0 2.0 3.0 0.0 8.0 10.0 7.0 10.0 9.0 1.0 10.0 8.0 7.0 2.0 1.0 8.0 4.0 -408.0 9.0 8.0 0.0 10.0 7.0 1.0 7.0 6.0 8.0 
7.0 2.0 2.0 7.0 6.0 2.0 5.0 3.0 7.0 9.0 8.0 2.0 10.0 5.0 8.0 3.0 6.0 8.0 7.0 3.0 3.0 5.0 9.0 5.0 4.0 1.0 8.0 4.0 2.0 10.0 0.0 8.0 8.0 0.0 5.0 6.0 5.0 8.0 0.0 5.0 2.0 6.0 4.0 3.0 5.0 5.0 4.0 0.0 9.0 1.0 7.0 4.0 3.0 9.0 5.0 3.0 9.0 1.0 10.0 1.0 4.0 4.0 8.0 0.0 1.0 3.0 2.0 5.0 6.0 10.0 4.0 7.0 9.0 -410.0 7.0 10.0 0.0 4.0 8.0 8.0 3.0 10.0 
2.0 2.0 0.0 7.0 2.0 2.0 5.0 3.0 4.0 2.0 9.0 2.0 4.0 8.0 4.0 4.0 3.0 1.0 7.0 3.0 8.0 2.0 1.0 4.0 4.0 6.0 3.0 9.0 6.0 10.0 10.0 8.0 4.0 3.0 9.0 7.0 8.0 3.0 8.0 0.0 5.0 7.0 10.0 7.0 4.0 10.0 6.0 10.0 2.0 3.0 10.0 9.0 1.0 3.0 6.0 4.0 7.0 1.0 1.0 5.0 0.0 5.0 0.0 1.0 8.0 8.0 5.0 4.0 2.0 8.0 3.0 6.0 8.0 7.0 -395.0 3.0 0.0 10.0 3.0 5.0 10.0 1.0 
4.0 1.0 8.0 9.0 7.0 2.0 4.0 4.0 7.0 7.0 4.0 1.0 5.0 3.0 9.0 8.0 8.0 7.0 4.0 4.0 7.0 8.0 1.0 3.0 4.0 0.0 7.0 5.0 2.0 10.0 0.0 7.0 0.0 5.0 10.0 2.0 10.0 0.0 1.0 10.0 6.0 7.0 0.0 2.0 4.0 5.0 10.0 3.0 0.0 0.0 2.0 10.0 0.0 8.0 3.0 6.0 5.0 0.0 7.0 10.0 1.0 4.0 1.0 2.0 6.0 8.0 2.0 10.0 10.0 10.0 8.0 8.0 0.0 10.0 3.0 -396.0 9.0 5.0 0.0 3.0 7.0 3.0 
3.0 0.0 1.0 0.0 7.0 6.0 6.0 8.0 5.0 8.0 6.0 3.0 0.0 6.0 5.0 9.0 8.0 0.0 5.0 2.0 5.0 8.0 4.0 2.0 4.0 2.0 1.0 3.0 6.0 5.0 5.0 0.0 0.0 8.0 7.0 5.0 3.0 5.0 7.0 0.0 0.0 0.0 0.0 0.0 7.0 7.0 7.0 5.0 7.0 5.0 5.0 2.0 6.0 4.0 2.0 5.0 0.0 5.0 6.0 8.0 8.0 10.0 10.0 3.0 6.0 0.0 0.0 5.0 5.0 9.0 7.0 1.0 10.0 0.0 0.0 9.0 -355.0 4.0 1.0 4.0 7.0 7.0 
9.0 0.0 0.0 2.0 6.0 7.0 3.0 4.0 2.0 3.0 3.0 5.0 0.0 2.0 10.0 6.0 3.0 0.0 2.0 5.0 6.0 10.0 1.0 7.0 8.0 5.0 3.0 3.0 7.0 8.0 9.0 8.0 5.0 10.0 0.0 9.0 3.0 10.0 8.0 7.0 1.0 10.0 5.0 10.0 1.0 0.0 7.0 10.0 9.0 1.0 10.0 2.0 8.0 6.0 7.0 2.0 10.0 8.0 7.0 5.0 2.0 8.0 6.0 3.0 8.0 6.0 3.0 8.0 6.0 8.0 2.0 2.0 7.0 4.0 10.0 5.0 4.0 -427.0 10.0 4.0 3.0 0.0 
8.0 0.0 6.0 2.0 0.0 3.0 8.0 7.0 3.0 3.0 10.0 1.0 1.0 7.0 8.0 0.0 5.0 8.0 2.0 3.0 8.0 10.0 5.0 8.0 0.0 2.0 9.0 0.0 7.0 10.0 3.0 6.0 1.0 10.0 3.0 4.0 0.0 5.0 5.0 3.0 2.0 7.0 4.0 8.0 5.0 5.0 0.0 7.0 10.0 3.0 9.0 6.0 3.0 2.0 0.0 4.0 0.0 4.0 8.0 8.0 2.0 8.0 7.0 8.0 9.0 3.0 7.0 5.0 7.0 3.0 8.0 2.0 1.0 8.0 3.0 0.0 1.0 10.0 -388.0 1.0 10.0 6.0 
1.0 0.0 5.0 9.0 7.0 5.0 3.0 1.0 8.0 3.0 4.0 9.0 0.0 10.0 1.0 9.0 1.0 1.0 4.0 6.0 0.0 5.0 9.0 10.0 3.0 4.0 8.0 1.0 4.0 0.0 6.0 2.0 3.0 3.0 6.0 8.0 1.0 10.0 2.0 4.0 0.0 6.0 3.0 5.0 7.0 1.0 4.0 9.0 5.0 7.0 8.0 5.0 4.0 2.0 5.0 1.0 7.0 3.0 7.0 1.0 5.0 4.0 0.0 1.0 5.0 5.0 10.0 8.0 0.0 3.0 9.0 3.0 7.0 8.0 5.0 3.0 4.0 4.0 1.0 -357.0 2.0 4.0 
8.0 0.0 6.0 5.0 8.0 5.0 4.0 8.0 8.0 7.0 10.0 2.0 0.0 6.0 3.0 1.0 4.0 2.0 2.0 1.0 7.0 5.0 7.0 4.0 9.0 2.0 1.0 6.0 8.0 4.0 10.0 0.0 2.0 4.0 5.0 1.0 3.0 0.0 5.0 8.0 10.0 4.0 0.0 6.0 10.0 4.0 10.0 5.0 6.0 10.0 8.0 10.0 6.0 7.0 9.0 7.0 0.0 3.0 10.0 1.0 5.0 8.0 1.0 1.0 8.0 7.0 9.0 7.0 2.0 1.0 7.0 6.0 6.0 3.0 10.0 7.0 7.0 3.0 10.0 2.0 -418.0 1.0 
4.0 0.0 1.0 0.0 0.0 0.0 5.0 1.0 7.0 2.0 5.0 5.0 6.0 7.0 9.0 8.0 3.0 2.0 6.0 10.0 7.0 6.0 1.0 0.0 8.0 10.0 3.0 2.0 5.0 5.0 0.0 4.0 7.0 1.0 8.0 7.0 6.0 8.0 4.0 5.0 9.0 9.0 5.0 8.0 4.0 3.0 6.0 8.0 5.0 2.0 9.0 1.0 5.0 8.0 6.0 6.0 3.0 10.0 6.0 10.0 0.0 3.0 7.0 10.0 9.0 6.0 0.0 7.0 7.0 2.0 5.0 4.0 8.0 10.0 1.0 3.0 7.0 0.0 6.0 4.0 1.0 -401.0 

